instances/shortest_path/discrete_knapsack_uncertainty/nohadani_9_1.lp
\ Model nohadani_9_1
\ LP format - for model browsing. Use MPS format to capture full model detail.
\ Signature: 0x3d742310a829b0f1
Minimize
  29.42787793912432 y[0,1] + 24.18677324489565 y[0,2]
   + 57.0087712549569 y[0,4] + 22.20360331117452 y[0,5] + 3 y[0,6]
   + 17 y[0,7] + 49.09175083453431 y[0,8] + 29.42787793912432 y[1,0]
   + 43.18564576337837 y[1,2] + 41.86884283091664 y[1,5]
   + 29.06888370749727 y[1,6] + 19.1049731745428 y[1,7]
   + 54.40588203494178 y[1,8] + 24.18677324489565 y[2,0]
   + 43.18564576337837 y[2,1] + 65 y[2,4] + 2 y[2,5]
   + 27.16615541441225 y[2,6] + 24.08318915758459 y[2,7] + 73 y[2,8]
   + 25 y[3,4] + 71.69379331573968 y[3,6] + 59.84145720150872 y[3,8]
   + 57.0087712549569 y[4,0] + 65 y[4,2] + 25 y[4,3]
   + 63.8200595424354 y[4,5] + 56.29387178015028 y[4,6]
   + 62.12889826803627 y[4,8] + 22.20360331117452 y[5,0]
   + 41.86884283091664 y[5,1] + 2 y[5,2] + 63.8200595424354 y[5,4]
   + 25.17935662402834 y[5,6] + 22.80350850198276 y[5,7] + 71 y[5,8]
   + 3 y[6,0] + 29.06888370749727 y[6,1] + 27.16615541441225 y[6,2]
   + 71.69379331573968 y[6,3] + 56.29387178015028 y[6,4]
   + 25.17935662402834 y[6,5] + 18.60107523773828 y[6,7]
   + 46.09772228646444 y[6,8] + 17 y[7,0] + 19.1049731745428 y[7,1]
   + 24.08318915758459 y[7,2] + 22.80350850198276 y[7,5]
   + 18.60107523773828 y[7,6] + 59.77457653551382 y[7,8]
   + 49.09175083453431 y[8,0] + 54.40588203494178 y[8,1] + 73 y[8,2]
   + 59.84145720150872 y[8,3] + 62.12889826803627 y[8,4] + 71 y[8,5]
   + 46.09772228646444 y[8,6] + 59.77457653551382 y[8,7] + x[0,1] + x[0,2]
   + x[0,4] + x[0,5] + x[0,6] + x[0,7] + x[0,8] + x[1,0] + x[1,2] + x[1,5]
   + x[1,6] + x[1,7] + x[1,8] + x[2,0] + x[2,1] + x[2,4] + x[2,5] + x[2,6]
   + x[2,7] + x[2,8] + x[3,4] + x[3,6] + x[3,8] + x[4,0] + x[4,2] + x[4,3]
   + x[4,5] + x[4,6] + x[4,8] + x[5,0] + x[5,1] + x[5,2] + x[5,4] + x[5,6]
   + x[5,7] + x[5,8] + x[6,0] + x[6,1] + x[6,2] + x[6,3] + x[6,4] + x[6,5]
   + x[6,7] + x[6,8] + x[7,0] + x[7,1] + x[7,2] + x[7,5] + x[7,6] + x[7,8]
   + x[8,0] + x[8,1] + x[8,2] + x[8,3] + x[8,4] + x[8,5] + x[8,6] + x[8,7]
   + 2.942787793912432 r[0,1] + 2.418677324489565 r[0,2]
   + 5.70087712549569 r[0,4] + 2.220360331117452 r[0,5] + 0.3 r[0,6]
   + 1.7 r[0,7] + 4.909175083453431 r[0,8] + 2.942787793912432 r[1,0]
   + 4.318564576337837 r[1,2] + 4.186884283091664 r[1,5]
   + 2.906888370749727 r[1,6] + 1.91049731745428 r[1,7]
   + 5.440588203494178 r[1,8] + 2.418677324489565 r[2,0]
   + 4.318564576337837 r[2,1] + 6.5 r[2,4] + 0.2 r[2,5]
   + 2.716615541441225 r[2,6] + 2.408318915758459 r[2,7] + 7.3 r[2,8]
   + 2.5 r[3,4] + 7.169379331573968 r[3,6] + 5.984145720150873 r[3,8]
   + 5.70087712549569 r[4,0] + 6.5 r[4,2] + 2.5 r[4,3]
   + 6.382005954243541 r[4,5] + 5.629387178015028 r[4,6]
   + 6.212889826803627 r[4,8] + 2.220360331117452 r[5,0]
   + 4.186884283091664 r[5,1] + 0.2 r[5,2] + 6.382005954243541 r[5,4]
   + 2.517935662402834 r[5,6] + 2.280350850198276 r[5,7] + 7.1 r[5,8]
   + 0.3 r[6,0] + 2.906888370749727 r[6,1] + 2.716615541441225 r[6,2]
   + 7.169379331573968 r[6,3] + 5.629387178015028 r[6,4]
   + 2.517935662402834 r[6,5] + 1.860107523773828 r[6,7]
   + 4.609772228646444 r[6,8] + 1.7 r[7,0] + 1.91049731745428 r[7,1]
   + 2.408318915758459 r[7,2] + 2.280350850198276 r[7,5]
   + 1.860107523773828 r[7,6] + 5.977457653551383 r[7,8]
   + 4.909175083453431 r[8,0] + 5.440588203494178 r[8,1] + 7.3 r[8,2]
   + 5.984145720150873 r[8,3] + 6.212889826803627 r[8,4] + 7.1 r[8,5]
   + 4.609772228646444 r[8,6] + 5.977457653551383 r[8,7]
Subject To
 flow_cons_inner_nodes[0]: - y[0,1] - y[0,2] - y[0,4] - y[0,5] - y[0,6]
   - y[0,7] - y[0,8] + y[1,0] + y[2,0] + y[4,0] + y[5,0] + y[6,0] + y[7,0]
   + y[8,0] = 0
 flow_cons_inner_nodes[2]: y[0,2] + y[1,2] - y[2,0] - y[2,1] - y[2,4]
   - y[2,5] - y[2,6] - y[2,7] - y[2,8] + y[4,2] + y[5,2] + y[6,2] + y[7,2]
   + y[8,2] = 0
 flow_cons_inner_nodes[4]: y[0,4] + y[2,4] + y[3,4] - y[4,0] - y[4,2]
   - y[4,3] - y[4,5] - y[4,6] - y[4,8] + y[5,4] + y[6,4] + y[8,4] = 0
 flow_cons_inner_nodes[5]: y[0,5] + y[1,5] + y[2,5] + y[4,5] - y[5,0]
   - y[5,1] - y[5,2] - y[5,4] - y[5,6] - y[5,7] - y[5,8] + y[6,5] + y[7,5]
   + y[8,5] = 0
 flow_cons_inner_nodes[6]: y[0,6] + y[1,6] + y[2,6] + y[3,6] + y[4,6]
   + y[5,6] - y[6,0] - y[6,1] - y[6,2] - y[6,3] - y[6,4] - y[6,5] - y[6,7]
   - y[6,8] + y[7,6] + y[8,6] = 0
 flow_cons_inner_nodes[7]: y[0,7] + y[1,7] + y[2,7] + y[5,7] + y[6,7]
   - y[7,0] - y[7,1] - y[7,2] - y[7,5] - y[7,6] - y[7,8] + y[8,7] = 0
 flow_cons_inner_nodes[8]: y[0,8] + y[1,8] + y[2,8] + y[3,8] + y[4,8]
   + y[5,8] + y[6,8] + y[7,8] - y[8,0] - y[8,1] - y[8,2] - y[8,3] - y[8,4]
   - y[8,5] - y[8,6] - y[8,7] = 0
 flow_cons_source: - y[0,1] + y[1,0] + y[1,2] + y[1,5] + y[1,6] + y[1,7]
   + y[1,8] - y[2,1] - y[5,1] - y[6,1] - y[7,1] - y[8,1] = 1
 flow_cons_target: - y[3,4] - y[3,6] - y[3,8] + y[4,3] + y[6,3] + y[8,3]
   = 1
 primal_lower: 3.066172055138079 x[0,1] + 1.013986679207555 x[0,2]
   + 2.723224295461758 x[0,4] + 1.836145310743799 x[0,5]
   + 3.311572821304436 x[0,6] + 1.119129270781498 x[0,7]
   + 1.615646203845443 x[0,8] + 1.11483068931584 x[1,0]
   + 2.459652070092852 x[1,2] + 3.668030502927659 x[1,5]
   + 3.529536882191323 x[1,6] + 3.900113150716217 x[1,7]
   + 1.168922806825299 x[1,8] + 3.170403423016199 x[2,0]
   + 1.038534359330915 x[2,1] + 0.6594676606829522 x[2,4]
   + 0.00867618743792227 x[2,5] + 1.130706901809688 x[2,6]
   + 0.0631715839782466 x[2,7] + 1.022913953878814 x[2,8]
   + 2.367090228571243 x[3,4] + 2.128485297380176 x[3,6]
   + 4.447192303776542 x[3,8] + 1.061583135548128 x[4,0]
   + 2.734143945108889 x[4,2] + 1.84887365353884 x[4,3]
   + 1.021174864445487 x[4,5] + 3.304821030708858 x[4,6]
   + 3.0712714133286 x[4,8] + 1.924168472425624 x[5,0]
   + 4.241601890800809 x[5,1] + 1.175467469966863 x[5,2]
   + 0.3693816332733336 x[5,4] + 4.073730512749307 x[5,6]
   + 0.2394794906232267 x[5,7] + 2.034218149732571 x[5,8]
   + 4.077669686550971 x[6,0] + 3.017325277133824 x[6,1]
   + 2.640127438636538 x[6,2] + 3.675657730371212 x[6,3]
   + 2.27948709632434 x[6,4] + 2.090929790990159 x[6,5]
   + 3.412809686425214 x[6,7] + 1.226568027706028 x[6,8]
   + 1.993033249738085 x[7,0] + 1.957096892077178 x[7,1]
   + 1.359709350907875 x[7,2] + 2.512464346043871 x[7,5]
   + 1.831186805345055 x[7,6] + 0.7213950814177721 x[7,8]
   + 2.025327687825317 x[8,0] + 3.04408590453606 x[8,1]
   + 1.519292495332824 x[8,2] + 4.224572776300617 x[8,3]
   + 0.5159451262182578 x[8,4] + 0.3056870897979653 x[8,5]
   + 0.9818324698578196 x[8,6] + 4.285777843451117 x[8,7] + 9 u[0,1]
   + 38 u[0,2] + 40 u[0,4] + 93 u[0,5] + 50 u[0,6] + 27 u[0,7] + 27 u[0,8]
   + 49 u[1,0] + 59 u[1,2] + 68 u[1,5] + 77 u[1,6] + 61 u[1,7] + 58 u[1,8]
   + 78 u[2,0] + 70 u[2,1] + 14 u[2,4] + 43 u[2,5] + 38 u[2,6] + 31 u[2,7]
   + 56 u[2,8] + 79 u[3,4] + 25 u[3,6] + 10 u[3,8] + 16 u[4,0] + 70 u[4,2]
   + 66 u[4,3] + 56 u[4,5] + 89 u[4,6] + 67 u[4,8] + 53 u[5,0] + 39 u[5,1]
   + 17 u[5,2] + 29 u[5,4] + 87 u[5,6] + 30 u[5,7] + 43 u[5,8] + 78 u[6,0]
   + 54 u[6,1] + 10 u[6,2] + 68 u[6,3] + 57 u[6,4] + 83 u[6,5] + 96 u[6,7]
   + 79 u[6,8] + 49 u[7,0] + 8 u[7,1] + 67 u[7,2] + 91 u[7,5] + 25 u[7,6]
   + 2 u[7,8] + 28 u[8,0] + 38 u[8,1] + 95 u[8,2] + 2 u[8,3] + 66 u[8,4]
   + 93 u[8,5] + 31 u[8,6] + 24 u[8,7] <= 264
 mccormick1[0,1]: - u[0,1] + r[0,1] <= 0
 mccormick1[0,2]: - u[0,2] + r[0,2] <= 0
 mccormick1[0,4]: - u[0,4] + r[0,4] <= 0
 mccormick1[0,5]: - u[0,5] + r[0,5] <= 0
 mccormick1[0,6]: - u[0,6] + r[0,6] <= 0
 mccormick1[0,7]: - u[0,7] + r[0,7] <= 0
 mccormick1[0,8]: - u[0,8] + r[0,8] <= 0
 mccormick1[1,0]: - u[1,0] + r[1,0] <= 0
 mccormick1[1,2]: - u[1,2] + r[1,2] <= 0
 mccormick1[1,5]: - u[1,5] + r[1,5] <= 0
 mccormick1[1,6]: - u[1,6] + r[1,6] <= 0
 mccormick1[1,7]: - u[1,7] + r[1,7] <= 0
 mccormick1[1,8]: - u[1,8] + r[1,8] <= 0
 mccormick1[2,0]: - u[2,0] + r[2,0] <= 0
 mccormick1[2,1]: - u[2,1] + r[2,1] <= 0
 mccormick1[2,4]: - u[2,4] + r[2,4] <= 0
 mccormick1[2,5]: - u[2,5] + r[2,5] <= 0
 mccormick1[2,6]: - u[2,6] + r[2,6] <= 0
 mccormick1[2,7]: - u[2,7] + r[2,7] <= 0
 mccormick1[2,8]: - u[2,8] + r[2,8] <= 0
 mccormick1[3,4]: - u[3,4] + r[3,4] <= 0
 mccormick1[3,6]: - u[3,6] + r[3,6] <= 0
 mccormick1[3,8]: - u[3,8] + r[3,8] <= 0
 mccormick1[4,0]: - u[4,0] + r[4,0] <= 0
 mccormick1[4,2]: - u[4,2] + r[4,2] <= 0
 mccormick1[4,3]: - u[4,3] + r[4,3] <= 0
 mccormick1[4,5]: - u[4,5] + r[4,5] <= 0
 mccormick1[4,6]: - u[4,6] + r[4,6] <= 0
 mccormick1[4,8]: - u[4,8] + r[4,8] <= 0
 mccormick1[5,0]: - u[5,0] + r[5,0] <= 0
 mccormick1[5,1]: - u[5,1] + r[5,1] <= 0
 mccormick1[5,2]: - u[5,2] + r[5,2] <= 0
 mccormick1[5,4]: - u[5,4] + r[5,4] <= 0
 mccormick1[5,6]: - u[5,6] + r[5,6] <= 0
 mccormick1[5,7]: - u[5,7] + r[5,7] <= 0
 mccormick1[5,8]: - u[5,8] + r[5,8] <= 0
 mccormick1[6,0]: - u[6,0] + r[6,0] <= 0
 mccormick1[6,1]: - u[6,1] + r[6,1] <= 0
 mccormick1[6,2]: - u[6,2] + r[6,2] <= 0
 mccormick1[6,3]: - u[6,3] + r[6,3] <= 0
 mccormick1[6,4]: - u[6,4] + r[6,4] <= 0
 mccormick1[6,5]: - u[6,5] + r[6,5] <= 0
 mccormick1[6,7]: - u[6,7] + r[6,7] <= 0
 mccormick1[6,8]: - u[6,8] + r[6,8] <= 0
 mccormick1[7,0]: - u[7,0] + r[7,0] <= 0
 mccormick1[7,1]: - u[7,1] + r[7,1] <= 0
 mccormick1[7,2]: - u[7,2] + r[7,2] <= 0
 mccormick1[7,5]: - u[7,5] + r[7,5] <= 0
 mccormick1[7,6]: - u[7,6] + r[7,6] <= 0
 mccormick1[7,8]: - u[7,8] + r[7,8] <= 0
 mccormick1[8,0]: - u[8,0] + r[8,0] <= 0
 mccormick1[8,1]: - u[8,1] + r[8,1] <= 0
 mccormick1[8,2]: - u[8,2] + r[8,2] <= 0
 mccormick1[8,3]: - u[8,3] + r[8,3] <= 0
 mccormick1[8,4]: - u[8,4] + r[8,4] <= 0
 mccormick1[8,5]: - u[8,5] + r[8,5] <= 0
 mccormick1[8,6]: - u[8,6] + r[8,6] <= 0
 mccormick1[8,7]: - u[8,7] + r[8,7] <= 0
 mccormick2[0,1]: - y[0,1] + r[0,1] <= 0
 mccormick2[0,2]: - y[0,2] + r[0,2] <= 0
 mccormick2[0,4]: - y[0,4] + r[0,4] <= 0
 mccormick2[0,5]: - y[0,5] + r[0,5] <= 0
 mccormick2[0,6]: - y[0,6] + r[0,6] <= 0
 mccormick2[0,7]: - y[0,7] + r[0,7] <= 0
 mccormick2[0,8]: - y[0,8] + r[0,8] <= 0
 mccormick2[1,0]: - y[1,0] + r[1,0] <= 0
 mccormick2[1,2]: - y[1,2] + r[1,2] <= 0
 mccormick2[1,5]: - y[1,5] + r[1,5] <= 0
 mccormick2[1,6]: - y[1,6] + r[1,6] <= 0
 mccormick2[1,7]: - y[1,7] + r[1,7] <= 0
 mccormick2[1,8]: - y[1,8] + r[1,8] <= 0
 mccormick2[2,0]: - y[2,0] + r[2,0] <= 0
 mccormick2[2,1]: - y[2,1] + r[2,1] <= 0
 mccormick2[2,4]: - y[2,4] + r[2,4] <= 0
 mccormick2[2,5]: - y[2,5] + r[2,5] <= 0
 mccormick2[2,6]: - y[2,6] + r[2,6] <= 0
 mccormick2[2,7]: - y[2,7] + r[2,7] <= 0
 mccormick2[2,8]: - y[2,8] + r[2,8] <= 0
 mccormick2[3,4]: - y[3,4] + r[3,4] <= 0
 mccormick2[3,6]: - y[3,6] + r[3,6] <= 0
 mccormick2[3,8]: - y[3,8] + r[3,8] <= 0
 mccormick2[4,0]: - y[4,0] + r[4,0] <= 0
 mccormick2[4,2]: - y[4,2] + r[4,2] <= 0
 mccormick2[4,3]: - y[4,3] + r[4,3] <= 0
 mccormick2[4,5]: - y[4,5] + r[4,5] <= 0
 mccormick2[4,6]: - y[4,6] + r[4,6] <= 0
 mccormick2[4,8]: - y[4,8] + r[4,8] <= 0
 mccormick2[5,0]: - y[5,0] + r[5,0] <= 0
 mccormick2[5,1]: - y[5,1] + r[5,1] <= 0
 mccormick2[5,2]: - y[5,2] + r[5,2] <= 0
 mccormick2[5,4]: - y[5,4] + r[5,4] <= 0
 mccormick2[5,6]: - y[5,6] + r[5,6] <= 0
 mccormick2[5,7]: - y[5,7] + r[5,7] <= 0
 mccormick2[5,8]: - y[5,8] + r[5,8] <= 0
 mccormick2[6,0]: - y[6,0] + r[6,0] <= 0
 mccormick2[6,1]: - y[6,1] + r[6,1] <= 0
 mccormick2[6,2]: - y[6,2] + r[6,2] <= 0
 mccormick2[6,3]: - y[6,3] + r[6,3] <= 0
 mccormick2[6,4]: - y[6,4] + r[6,4] <= 0
 mccormick2[6,5]: - y[6,5] + r[6,5] <= 0
 mccormick2[6,7]: - y[6,7] + r[6,7] <= 0
 mccormick2[6,8]: - y[6,8] + r[6,8] <= 0
 mccormick2[7,0]: - y[7,0] + r[7,0] <= 0
 mccormick2[7,1]: - y[7,1] + r[7,1] <= 0
 mccormick2[7,2]: - y[7,2] + r[7,2] <= 0
 mccormick2[7,5]: - y[7,5] + r[7,5] <= 0
 mccormick2[7,6]: - y[7,6] + r[7,6] <= 0
 mccormick2[7,8]: - y[7,8] + r[7,8] <= 0
 mccormick2[8,0]: - y[8,0] + r[8,0] <= 0
 mccormick2[8,1]: - y[8,1] + r[8,1] <= 0
 mccormick2[8,2]: - y[8,2] + r[8,2] <= 0
 mccormick2[8,3]: - y[8,3] + r[8,3] <= 0
 mccormick2[8,4]: - y[8,4] + r[8,4] <= 0
 mccormick2[8,5]: - y[8,5] + r[8,5] <= 0
 mccormick2[8,6]: - y[8,6] + r[8,6] <= 0
 mccormick2[8,7]: - y[8,7] + r[8,7] <= 0
 mccormick3[0,1]: - y[0,1] - u[0,1] + r[0,1] >= -1
 mccormick3[0,2]: - y[0,2] - u[0,2] + r[0,2] >= -1
 mccormick3[0,4]: - y[0,4] - u[0,4] + r[0,4] >= -1
 mccormick3[0,5]: - y[0,5] - u[0,5] + r[0,5] >= -1
 mccormick3[0,6]: - y[0,6] - u[0,6] + r[0,6] >= -1
 mccormick3[0,7]: - y[0,7] - u[0,7] + r[0,7] >= -1
 mccormick3[0,8]: - y[0,8] - u[0,8] + r[0,8] >= -1
 mccormick3[1,0]: - y[1,0] - u[1,0] + r[1,0] >= -1
 mccormick3[1,2]: - y[1,2] - u[1,2] + r[1,2] >= -1
 mccormick3[1,5]: - y[1,5] - u[1,5] + r[1,5] >= -1
 mccormick3[1,6]: - y[1,6] - u[1,6] + r[1,6] >= -1
 mccormick3[1,7]: - y[1,7] - u[1,7] + r[1,7] >= -1
 mccormick3[1,8]: - y[1,8] - u[1,8] + r[1,8] >= -1
 mccormick3[2,0]: - y[2,0] - u[2,0] + r[2,0] >= -1
 mccormick3[2,1]: - y[2,1] - u[2,1] + r[2,1] >= -1
 mccormick3[2,4]: - y[2,4] - u[2,4] + r[2,4] >= -1
 mccormick3[2,5]: - y[2,5] - u[2,5] + r[2,5] >= -1
 mccormick3[2,6]: - y[2,6] - u[2,6] + r[2,6] >= -1
 mccormick3[2,7]: - y[2,7] - u[2,7] + r[2,7] >= -1
 mccormick3[2,8]: - y[2,8] - u[2,8] + r[2,8] >= -1
 mccormick3[3,4]: - y[3,4] - u[3,4] + r[3,4] >= -1
 mccormick3[3,6]: - y[3,6] - u[3,6] + r[3,6] >= -1
 mccormick3[3,8]: - y[3,8] - u[3,8] + r[3,8] >= -1
 mccormick3[4,0]: - y[4,0] - u[4,0] + r[4,0] >= -1
 mccormick3[4,2]: - y[4,2] - u[4,2] + r[4,2] >= -1
 mccormick3[4,3]: - y[4,3] - u[4,3] + r[4,3] >= -1
 mccormick3[4,5]: - y[4,5] - u[4,5] + r[4,5] >= -1
 mccormick3[4,6]: - y[4,6] - u[4,6] + r[4,6] >= -1
 mccormick3[4,8]: - y[4,8] - u[4,8] + r[4,8] >= -1
 mccormick3[5,0]: - y[5,0] - u[5,0] + r[5,0] >= -1
 mccormick3[5,1]: - y[5,1] - u[5,1] + r[5,1] >= -1
 mccormick3[5,2]: - y[5,2] - u[5,2] + r[5,2] >= -1
 mccormick3[5,4]: - y[5,4] - u[5,4] + r[5,4] >= -1
 mccormick3[5,6]: - y[5,6] - u[5,6] + r[5,6] >= -1
 mccormick3[5,7]: - y[5,7] - u[5,7] + r[5,7] >= -1
 mccormick3[5,8]: - y[5,8] - u[5,8] + r[5,8] >= -1
 mccormick3[6,0]: - y[6,0] - u[6,0] + r[6,0] >= -1
 mccormick3[6,1]: - y[6,1] - u[6,1] + r[6,1] >= -1
 mccormick3[6,2]: - y[6,2] - u[6,2] + r[6,2] >= -1
 mccormick3[6,3]: - y[6,3] - u[6,3] + r[6,3] >= -1
 mccormick3[6,4]: - y[6,4] - u[6,4] + r[6,4] >= -1
 mccormick3[6,5]: - y[6,5] - u[6,5] + r[6,5] >= -1
 mccormick3[6,7]: - y[6,7] - u[6,7] + r[6,7] >= -1
 mccormick3[6,8]: - y[6,8] - u[6,8] + r[6,8] >= -1
 mccormick3[7,0]: - y[7,0] - u[7,0] + r[7,0] >= -1
 mccormick3[7,1]: - y[7,1] - u[7,1] + r[7,1] >= -1
 mccormick3[7,2]: - y[7,2] - u[7,2] + r[7,2] >= -1
 mccormick3[7,5]: - y[7,5] - u[7,5] + r[7,5] >= -1
 mccormick3[7,6]: - y[7,6] - u[7,6] + r[7,6] >= -1
 mccormick3[7,8]: - y[7,8] - u[7,8] + r[7,8] >= -1
 mccormick3[8,0]: - y[8,0] - u[8,0] + r[8,0] >= -1
 mccormick3[8,1]: - y[8,1] - u[8,1] + r[8,1] >= -1
 mccormick3[8,2]: - y[8,2] - u[8,2] + r[8,2] >= -1
 mccormick3[8,3]: - y[8,3] - u[8,3] + r[8,3] >= -1
 mccormick3[8,4]: - y[8,4] - u[8,4] + r[8,4] >= -1
 mccormick3[8,5]: - y[8,5] - u[8,5] + r[8,5] >= -1
 mccormick3[8,6]: - y[8,6] - u[8,6] + r[8,6] >= -1
 mccormick3[8,7]: - y[8,7] - u[8,7] + r[8,7] >= -1
Bounds
Binaries
 y[0,1] y[0,2] y[0,4] y[0,5] y[0,6] y[0,7] y[0,8] y[1,0] y[1,2] y[1,5]
 y[1,6] y[1,7] y[1,8] y[2,0] y[2,1] y[2,4] y[2,5] y[2,6] y[2,7] y[2,8]
 y[3,4] y[3,6] y[3,8] y[4,0] y[4,2] y[4,3] y[4,5] y[4,6] y[4,8] y[5,0]
 y[5,1] y[5,2] y[5,4] y[5,6] y[5,7] y[5,8] y[6,0] y[6,1] y[6,2] y[6,3]
 y[6,4] y[6,5] y[6,7] y[6,8] y[7,0] y[7,1] y[7,2] y[7,5] y[7,6] y[7,8]
 y[8,0] y[8,1] y[8,2] y[8,3] y[8,4] y[8,5] y[8,6] y[8,7] x[0,1] x[0,2]
 x[0,4] x[0,5] x[0,6] x[0,7] x[0,8] x[1,0] x[1,2] x[1,5] x[1,6] x[1,7]
 x[1,8] x[2,0] x[2,1] x[2,4] x[2,5] x[2,6] x[2,7] x[2,8] x[3,4] x[3,6]
 x[3,8] x[4,0] x[4,2] x[4,3] x[4,5] x[4,6] x[4,8] x[5,0] x[5,1] x[5,2]
 x[5,4] x[5,6] x[5,7] x[5,8] x[6,0] x[6,1] x[6,2] x[6,3] x[6,4] x[6,5]
 x[6,7] x[6,8] x[7,0] x[7,1] x[7,2] x[7,5] x[7,6] x[7,8] x[8,0] x[8,1]
 x[8,2] x[8,3] x[8,4] x[8,5] x[8,6] x[8,7] u[0,1] u[0,2] u[0,4] u[0,5]
 u[0,6] u[0,7] u[0,8] u[1,0] u[1,2] u[1,5] u[1,6] u[1,7] u[1,8] u[2,0]
 u[2,1] u[2,4] u[2,5] u[2,6] u[2,7] u[2,8] u[3,4] u[3,6] u[3,8] u[4,0]
 u[4,2] u[4,3] u[4,5] u[4,6] u[4,8] u[5,0] u[5,1] u[5,2] u[5,4] u[5,6]
 u[5,7] u[5,8] u[6,0] u[6,1] u[6,2] u[6,3] u[6,4] u[6,5] u[6,7] u[6,8]
 u[7,0] u[7,1] u[7,2] u[7,5] u[7,6] u[7,8] u[8,0] u[8,1] u[8,2] u[8,3]
 u[8,4] u[8,5] u[8,6] u[8,7] r[0,1] r[0,2] r[0,4] r[0,5] r[0,6] r[0,7]
 r[0,8] r[1,0] r[1,2] r[1,5] r[1,6] r[1,7] r[1,8] r[2,0] r[2,1] r[2,4]
 r[2,5] r[2,6] r[2,7] r[2,8] r[3,4] r[3,6] r[3,8] r[4,0] r[4,2] r[4,3]
 r[4,5] r[4,6] r[4,8] r[5,0] r[5,1] r[5,2] r[5,4] r[5,6] r[5,7] r[5,8]
 r[6,0] r[6,1] r[6,2] r[6,3] r[6,4] r[6,5] r[6,7] r[6,8] r[7,0] r[7,1]
 r[7,2] r[7,5] r[7,6] r[7,8] r[8,0] r[8,1] r[8,2] r[8,3] r[8,4] r[8,5]
 r[8,6] r[8,7]
End
