instances/shortest_path/discrete_knapsack_uncertainty/nohadani_9_1.kp
82489
264

[3.066172055138079 1.0139866792075547 2.723224295461758 1.836145310743799 3.311572821304436 1.1191292707814984 1.615646203845443 1.1148306893158395 2.459652070092852 3.6680305029276594 3.529536882191323 3.9001131507162166 1.168922806825299 3.1704034230161993 1.038534359330915 0.6594676606829522 0.00867618743792227 1.1307069018096876 0.0631715839782466 1.0229139538788137 2.3670902285712434 2.1284852973801756 4.447192303776542 1.061583135548128 2.7341439451088894 1.84887365353884 1.0211748644454872 3.3048210307088577 3.0712714133285997 1.9241684724256243 4.241601890800809 1.1754674699668632 0.36938163327333357 4.073730512749307 0.2394794906232267 2.034218149732571 4.077669686550971 3.0173252771338244 2.6401274386365383 3.6756577303712117 2.27948709632434 2.0909297909901587 3.412809686425214 1.2265680277060276 1.9930332497380854 1.9570968920771779 1.3597093509078755 2.5124643460438714 1.8311868053450553 0.7213950814177721 2.025327687825317 3.0440859045360598 1.5192924953328242 4.224572776300617 0.5159451262182578 0.30568708979796533 0.9818324698578196 4.285777843451117]

[9 38 40 93 50 27 27 49 59 68 77 61 58 78 70 14 43 38 31 56 79 25 10 16 70 66 56 89 67 53 39 17 29 87 30 43 78 54 10 68 57 83 96 79 49 8 67 91 25 2 28 38 95 2 66 93 31 24]
